429
545
512
516
603
512
706
430
676
1194
405
265
589
226
339
211
215
415
436
279
305
360
408
242
483
609
641
488
479
349
221
275
219
251
216
452
492
587
532
471
131
330
366
715
96
224
512
1152
2560
5632
190
225
224
220
202
47
40
38
43
40
141
146
119
122
133
78
94
80
73
75
649
552
617
634
621
332
346
335
267
269
